67
137
27
168
334
323
513
158
442
1505
1618
1305
402
1204
1791
478
625
661
3479
4354
5957
2823
7700
9910
9727
8960
218
13120
6129
7620
6783
1508
18413
14373
275
5427
19682
19289
16144
12196
20038
19274
30950
30123
31716
28685
28111
16827
19857
28026
34186
34975
33559
35806
16061
17767
48520
3736
52488
3956
46365
66299
55507
28595
44202
21881
65591
80411
31884
22808
70085
70943
38094
47768
88521
51376
54153
93615
57927
97691
104755
32697
38080
112470
119436
107510
31300
50170
67423
126562
128075
100432
96840
32402
122994
145158
139881
129268
54250
52584
